NAME : sim71.87282.tour
COMMENT : Length = 87282
COMMENT : Found by LKH [Keld Helsgaun] Sat Sep 15 21:40:57 2018
TYPE : TOUR
DIMENSION : 71
TOUR_SECTION
1
8
46
69
5
39
58
45
24
23
60
47
40
41
67
68
15
63
20
11
70
22
2
28
34
13
21
64
48
29
10
36
33
42
62
25
55
9
59
4
43
3
6
61
17
51
27
31
56
57
66
32
38
35
12
37
54
30
49
14
26
19
65
44
16
18
52
7
71
53
50
-1
EOF
